114
0 102 78 93 91 100 14 59 22 63 
71 51 26 87 104 52 49 76 96 18 
38 56 28 90 67 88 11 19 1 85 
54 105 57 9 31 60 58 41 6 62 
13 35 39 46 33 20 72 110 92 21 
101 65 73 106 55 107 94 103 69 8 
32 99 84 44 81 4 40 24 64 25 
2 15 12 68 61 83 95 98 109 48 
89 53 113 34 79 27 37 16 45 5 
74 50 36 75 70 80 111 30 77 29 
97 112 17 86 42 23 43 82 108 3 
66 10 7 47 
